p edge 25 33
e 0 6
e 0 10
e 0 14
e 0 24
e 1 19
e 2 4
e 3 14
e 3 16
e 3 24
e 4 8
e 4 17
e 4 22
e 5 6
e 5 21
e 6 14
e 7 17
e 8 14
e 8 18
e 8 19
e 8 21
e 10 12
e 10 19
e 10 21
e 11 18
e 12 17
e 12 23
e 13 14
e 13 23
e 15 16
e 17 20
e 20 22
e 20 24
e 21 22
